p cnf 63 55
2 3 4 0
1 3 5 0
1 2 6 0
5 6 7 0
4 6 8 0
4 5 9 0
1 8 9 0
2 7 9 0
3 7 8 0
1 4 7 0
2 5 8 0
3 6 9 0
-10 -1 0
-16 -2 0
-16 10 0
-17 -2 10 0
-22 -3 0
-22 16 0
-23 -3 16 0
-23 17 0
-24 -3 17 0
-28 -4 0
-28 22 0
-29 -4 22 0
-29 23 0
-30 -4 23 0
-30 24 0
-31 -4 24 0
-35 -5 28 0
-35 29 0
-36 -5 29 0
-36 30 0
-37 -5 30 0
-37 31 0
-38 -5 31 0
-42 -6 35 0
-42 36 0
-43 -6 36 0
-43 37 0
-44 -6 37 0
-44 38 0
-45 -6 38 0
-49 -7 42 0
-49 43 0
-50 -7 43 0
-50 44 0
-51 -7 44 0
-51 45 0
-56 -8 49 0
-56 50 0
-57 -8 50 0
-57 51 0
-63 -9 56 0
-63 57 0
63 0
